(set-info :smt-lib-version 2.6)
(set-logic QF_UFLRA)
(set-info :source |
MathSat group

|)
(set-info :category "random")
(set-info :status sat)
(declare-fun x0 () Real)
(declare-fun x1 () Real)
(declare-fun x2 () Real)
(declare-fun x3 () Real)
(declare-fun x4 () Real)
(declare-fun x5 () Real)
(declare-fun x6 () Real)
(declare-fun x7 () Real)
(declare-fun x8 () Real)
(declare-fun x9 () Real)
(declare-fun x10 () Real)
(declare-fun x11 () Real)
(declare-fun x12 () Real)
(declare-fun x13 () Real)
(declare-fun x14 () Real)
(declare-fun x15 () Real)
(declare-fun x16 () Real)
(declare-fun x17 () Real)
(declare-fun x18 () Real)
(declare-fun x19 () Real)
(declare-fun x20 () Real)
(declare-fun x21 () Real)
(declare-fun x22 () Real)
(declare-fun x23 () Real)
(declare-fun x24 () Real)
(declare-fun x25 () Real)
(declare-fun x26 () Real)
(declare-fun x27 () Real)
(declare-fun x28 () Real)
(declare-fun x29 () Real)
(declare-fun x30 () Real)
(declare-fun x31 () Real)
(declare-fun x32 () Real)
(declare-fun x33 () Real)
(declare-fun x34 () Real)
(declare-fun x35 () Real)
(declare-fun x36 () Real)
(declare-fun x37 () Real)
(declare-fun x38 () Real)
(declare-fun x39 () Real)
(declare-fun x40 () Real)
(declare-fun x41 () Real)
(declare-fun x42 () Real)
(declare-fun x43 () Real)
(declare-fun x44 () Real)
(declare-fun x45 () Real)
(declare-fun x46 () Real)
(declare-fun x47 () Real)
(declare-fun x48 () Real)
(declare-fun x49 () Real)
(declare-fun f0_1 (Real) Real)
(declare-fun f0_2 (Real Real) Real)
(declare-fun f0_3 (Real Real Real) Real)
(declare-fun f0_4 (Real Real Real Real) Real)
(declare-fun P0 () Bool)
(declare-fun P1 () Bool)
(declare-fun P2 () Bool)
(declare-fun P3 () Bool)
(declare-fun P4 () Bool)
(declare-fun P5 () Bool)
(declare-fun P6 () Bool)
(declare-fun P7 () Bool)
(declare-fun P8 () Bool)
(declare-fun P9 () Bool)
(declare-fun P10 () Bool)
(declare-fun P11 () Bool)
(declare-fun P12 () Bool)
(declare-fun P13 () Bool)
(declare-fun P14 () Bool)
(declare-fun P15 () Bool)
(declare-fun P16 () Bool)
(declare-fun P17 () Bool)
(declare-fun P18 () Bool)
(declare-fun P19 () Bool)
(declare-fun P20 () Bool)
(declare-fun P21 () Bool)
(declare-fun P22 () Bool)
(declare-fun P23 () Bool)
(declare-fun P24 () Bool)
(declare-fun P25 () Bool)
(declare-fun P26 () Bool)
(declare-fun P27 () Bool)
(declare-fun P28 () Bool)
(declare-fun P29 () Bool)
(declare-fun P30 () Bool)
(declare-fun P31 () Bool)
(declare-fun P32 () Bool)
(declare-fun P33 () Bool)
(declare-fun P34 () Bool)
(declare-fun P35 () Bool)
(declare-fun P36 () Bool)
(declare-fun P37 () Bool)
(declare-fun P38 () Bool)
(declare-fun P39 () Bool)
(declare-fun P40 () Bool)
(declare-fun P41 () Bool)
(declare-fun P42 () Bool)
(declare-fun P43 () Bool)
(declare-fun P44 () Bool)
(declare-fun P45 () Bool)
(declare-fun P46 () Bool)
(declare-fun P47 () Bool)
(declare-fun P48 () Bool)
(declare-fun P49 () Bool)
(assert (let ((?v_4 (* 19 x36)) (?v_139 (* 25 x9))) (let ((?v_180 (= (- (+ ?v_139 (* 25 x14)) (* 25 x23)) 14)) (?v_62 (* 20 x31)) (?v_11 (< (+ (- (* 25 x49) (* 15 x17)) (* 25 x18)) 0)) (?v_118 (* 21 x21)) (?v_252 (<= (+ (- (* 8 x32) (* 2 x42)) (* 4 x44)) 20)) (?v_1 (<= (- (+ (* 2 x3) (* 19 x12)) (* 14 x46)) 7)) (?v_8 (= (- (+ (* 7 x1) (* 20 x5)) (* 8 x33)) 19)) (?v_48 (* 20 x43))) (let ((?v_127 (= (- (+ (* 5 x11) (* 18 x30)) ?v_48) 0)) (?v_142 (< (- (+ (* 14 x29) (* 11 x2)) (* 19 x28)) 19)) (?v_81 (< (- (- (* 4 x42) (* 19 x30)) (* 27 x26)) 9)) (?v_41 (f0_1 x26))) (let ((?v_44 (distinct x38 ?v_41)) (?v_78 (distinct (f0_1 x4) (f0_1 x21))) (?v_100 (= x42 (f0_1 x48))) (?v_17 (distinct (f0_1 x30) (f0_1 x12))) (?v_189 (= (f0_2 x15 x46) (f0_2 x35 x11))) (?v_3 (f0_1 x40))) (let ((?v_29 (distinct ?v_3 x16)) (?v_202 (= x25 x11)) (?v_131 (distinct (f0_2 x16 x22) (f0_2 x22 x43))) (?v_72 (= (f0_2 x21 x39) x35)) (?v_28 (f0_1 x7))) (let ((?v_52 (distinct (f0_1 x3) ?v_28)) (?v_33 (= x9 (f0_1 x16))) (?v_12 (distinct x25 (f0_2 x7 x13))) (?v_22 (= (f0_2 x10 x49) (f0_2 x44 x13))) (?v_2 (distinct x49 (f0_1 x22))) (?v_136 (= x7 (f0_2 x15 x39))) (?v_148 (= ?v_41 ?v_28)) (?v_124 (f0_1 x23))) (let ((?v_130 (= ?v_124 (f0_1 x29))) (?v_13 (f0_1 x32))) (let ((?v_218 (= (f0_1 x1) ?v_13)) (?v_237 (= (f0_2 x5 x10) x34)) (?v_162 (distinct ?v_13 (f0_2 x2 x19))) (?v_32 (= (f0_2 x13 x10) (f0_1 x17))) (?v_101 (= x46 (f0_2 x19 x18))) (?v_66 (f0_1 x13))) (let ((?v_105 (distinct (f0_2 x44 x36) ?v_66)) (?v_110 (f0_1 x36))) (let ((?v_76 (distinct x2 ?v_110)) (?v_147 (= (f0_1 x15) x3)) (?v_59 (= (f0_2 x32 x40) (f0_2 x27 x11))) (?v_74 (= x17 x39)) (?v_97 (= x45 (f0_1 x35))) (?v_67 (distinct (f0_2 x4 x6) (f0_2 x34 x5))) (?v_116 (distinct (f0_2 x42 x36) ?v_66)) (?v_114 (= (f0_2 x46 x47) x49)) (?v_87 (distinct ?v_3 x21)) (?v_135 (= ?v_110 (f0_1 x43))) (?v_55 (distinct (f0_1 x0) ?v_13)) (?v_73 (= (f0_1 x2) (f0_2 x33 x48))) (?v_193 (distinct (f0_1 x37) ?v_3)) (?v_34 (f0_1 x46))) (let ((?v_212 (= ?v_34 x21)) (?v_133 (distinct x32 ?v_13)) (?v_179 (= (f0_2 x23 x14) x34)) (?v_151 (= x30 (f0_2 x10 x48))) (?v_27 (= x9 (f0_2 x14 x45))) (?v_134 (distinct x16 (f0_2 x47 x3))) (?v_253 (= (f0_2 x30 x26) (f0_2 x40 x19))) (?v_160 (distinct x47 (f0_2 x20 x18))) (?v_152 (distinct x46 (f0_2 x42 x16))) (?v_250 (= (f0_2 x2 x9) x18)) (?v_132 (= x36 (f0_2 x33 x47))) (?v_128 (= (f0_2 x21 x5) ?v_124)) (?v_19 (distinct ?v_34 (f0_2 x12 x17))) (?v_6 (distinct (f0_1 x24) x10)) (?v_211 (not P12)) (?v_20 (not ?v_101)) (?v_18 (not P28)) (?v_7 (not ?v_189)) (?v_63 (not ?v_2))) (let ((?v_47 (not ?v_253)) (?v_96 (not P42)) (?v_92 (not P24)) (?v_38 (not P4)) (?v_216 (not ?v_11)) (?v_80 (not ?v_29)) (?v_106 (not P35)) (?v_40 (not P2)) (?v_94 (not ?v_87)) (?v_10 (not P47)) (?v_137 (not P8)) (?v_219 (not P14)) (?v_45 (not ?v_252)) (?v_75 (not ?v_6)) (?v_259 (not P48)) (?v_39 (not ?v_78)) (?v_95 (not ?v_55)) (?v_239 (not P22)) (?v_108 (not ?v_250)) (?v_141 (not ?v_8)) (?v_21 (not ?v_131)) (?v_53 (not P40)) (?v_251 (not P29)) (?v_14 (not ?v_133)) (?v_71 (not ?v_27)) (?v_51 (not P1)) (?v_117 (not ?v_12)) (?v_191 (not P9)) (?v_175 (not P15)) (?v_83 (not ?v_52)) (?v_25 (not P10)) (?v_58 (not P36)) (?v_36 (not P31)) (?v_46 (not ?v_17)) (?v_91 (not ?v_32)) (?v_240 (not ?v_33)) (?v_64 (not ?v_212)) (?v_138 (not P5)) (?v_89 (not P7)) (?v_199 (not ?v_19)) (?v_50 (not ?v_44)) (?v_61 (not P21)) (?v_90 (not P45)) (?v_121 (not P30)) (?v_54 (not P23)) (?v_249 (not ?v_59)) (?v_57 (not P13)) (?v_172 (not ?v_134)) (?v_129 (not P27)) (?v_60 (not ?v_73)) (?v_69 (not ?v_179)) (?v_183 (not ?v_81)) (?v_99 (not P41)) (?v_111 (not P25)) (?v_176 (not P17)) (?v_86 (not P49)) (?v_123 (not P26)) (?v_113 (not ?v_160)) (?v_79 (not ?v_72)) (?v_182 (not P44)) (?v_126 (not ?v_76)) (?v_224 (not ?v_218)) (?v_161 (not ?v_1)) (?v_107 (not ?v_132)) (?v_248 (not ?v_97)) (?v_217 (not ?v_100)) (?v_145 (not P32)) (?v_165 (not P39)) (?v_154 (not ?v_116)) (?v_200 (not ?v_142)) (?v_243 (not P38)) (?v_157 (not ?v_130)) (?v_167 (not P0)) (?v_171 (not P43)) (?v_174 (not P34)) (?v_158 (not P33)) (?v_256 (not P16)) (?v_206 (not ?v_128)) (?v_205 (not P19)) (?v_155 (not ?v_127)) (?v_246 (not P46)) (?v_188 (not P6)) (?v_232 (not P20)) (?v_210 (not ?v_162)) (?v_198 (not ?v_152)) (?v_186 (not ?v_114)) (?v_222 (not ?v_67)) (?v_192 (not ?v_22)) (?v_204 (not ?v_151)) (?v_214 (not ?v_180)) (?v_196 (not ?v_74)) (?v_244 (not P3)) (?v_195 (not ?v_193)) (?v_255 (not ?v_202)) (?v_215 (not ?v_147)) (?v_207 (not ?v_105)) (?v_245 (not ?v_148)) (?v_221 (not P18)) (?v_254 (not P11)) (?v_238 (not P37)) (?v_247 (not ?v_237)) (?v_149 (<= (+ (* 27 x10) (* 2 x35) (* 7 x21)) 28))) (let ((?v_169 (not ?v_149)) (?v_31 (<= (+ (* 21 x33) (* 10 x48) ?v_4) 8)) (?v_35 (= (+ (* 7 x44) (* 5 x42)) 23))) (let ((?v_208 (not ?v_35)) (?v_177 (<= (- (+ (* 2 x1) (* 13 x27)) 0) 0))) (let ((?v_146 (not ?v_177)) (?v_213 (not ?v_31)) (?v_42 (<= (+ (- (* 10 x1) 0) (* 24 x16)) 14))) (let ((?v_227 (not ?v_42)) (?v_209 (< (+ (* 23 x31) (* 22 x40)) 23)) (?v_140 (<= (+ (- (* 8 x43) x25) (* 10 x46)) 3))) (let ((?v_119 (not ?v_140))) (let ((?v_235 (or ?v_119 ?v_74)) (?v_178 (<= (+ (* 10 x8) (* 21 x20) (* 4 x17)) 13))) (let ((?v_257 (not ?v_178)) (?v_241 (not ?v_209)) (?v_9 (< (- (- (* (- 2) x15) ?v_4) 0) (- 13)))) (let ((?v_77 (not ?v_9)) (?v_0 (distinct (- (- (* (- 11) x46) (* 24 x33)) 0) 13))) (let ((?v_5 (not ?v_0)) (?v_43 (distinct (- (- (* (- 10) x47) x43) (* 20 x35)) 21)) (?v_16 (< (- (- (* (- 22) x6) (* 6 x37)) (* 12 x19)) 28)) (?v_23 (<= (- (- (* (- 22) x4) (* 6 x41)) (* 11 x6)) 5)) (?v_30 (< (+ (* (- 19) x6) (* 4 x21) (* 24 x26)) (- 29))) (?v_15 (<= (+ (* 23 x10) (* 8 x11) (* 13 x44)) (- 22)))) (let ((?v_184 (not ?v_15)) (?v_49 (not ?v_16)) (?v_226 (distinct (- (- (* 14 x33) (* 11 x25)) x6) (- 29)))) (let ((?v_26 (not ?v_226)) (?v_24 (<= (+ (* (- 22) x7) (* 7 x24) (* 18 x23)) (- 8))) (?v_225 (= (- (- (* 20 x29) (* 11 x5)) (* 8 x42)) (- 10)))) (let ((?v_185 (not ?v_225)) (?v_37 (distinct (- (- (* 5 x49) (* 25 x20)) (* 8 x17)) (- 21)))) (let ((?v_166 (not ?v_37)) (?v_230 (<= (- (- ?v_48 (* 24 x24)) (* 13 x25)) (- 27)))) (let ((?v_70 (not ?v_230)) (?v_143 (not ?v_23)) (?v_120 (< (+ (* (- 24) x23) (* 20 x40)) (- 17))) (?v_234 (<= (- (- (* (- 10) x40) (* 16 x29)) (* 27 x21)) 26))) (let ((?v_102 (not ?v_234)) (?v_159 (< (- (* 20 x20) 0) (- 4))) (?v_98 (= (- (- (* 25 x37) ?v_62) (* 21 x43)) (- 14)))) (let ((?v_153 (not ?v_98)) (?v_260 (= (+ (- (* (- 8) x34) (* 15 x1)) (* 9 x11)) 7))) (let ((?v_68 (not ?v_260)) (?v_93 (< (- (- (* (- 14) x40) (* 5 x23)) (* 20 x30)) 14)) (?v_103 (not ?v_43)) (?v_156 (< (- (- (* 21 x24) x44) (* 2 x10)) (- 19)))) (let ((?v_56 (not ?v_156)) (?v_125 (<= (- (- (* (- 1) x48) (* 20 x44)) (* 24 x15)) (- 16)))) (let ((?v_104 (not ?v_125)) (?v_150 (= (- (- (* 20 x24) 0) (* 19 x24)) (- 8)))) (let ((?v_65 (not ?v_150)) (?v_82 (<= (+ (* 4 x36) x9) (- 7)))) (let ((?v_112 (not ?v_82)) (?v_115 (< (+ (- (* (- 18) x31) (* 16 x23)) (* 27 x45)) 25))) (let ((?v_84 (not ?v_115)) (?v_173 (< (- (- (* 24 x22) 0) ?v_62) (- 29)))) (let ((?v_201 (not ?v_173)) (?v_88 (< (+ (* 17 x16) (* 10 x17) (* 16 x35)) (- 25))) (?v_197 (< (+ (* (- 10) x31) (* 15 x8) ?v_118) 12))) (let ((?v_109 (not ?v_197)) (?v_85 (<= (- (- (* (- 20) x37) (* 14 x19)) (* 16 x9)) 0)) (?v_122 (not ?v_93)) (?v_194 (<= (- (* 27 x28) ?v_139) (- 16))) (?v_228 (< (+ (- (* (- 1) x29) (* 20 x8)) ?v_118) (- 26))) (?v_233 (not ?v_24)) (?v_144 (not ?v_30))) (let ((?v_231 (not ?v_85)) (?v_164 (<= (- (+ (* 20 x26) x25) (* 3 x10)) (- 21))) (?v_223 (< (+ (* (- 22) x37) (* 17 x46) (* 3 x14)) 5)) (?v_163 (not ?v_88)) (?v_190 (= (+ (- (* 13 x7) (* 14 x43)) (* 22 x37)) (- 15))) (?v_181 (not ?v_120)) (?v_168 (distinct (+ (- (* (- 24) x30) (* 5 x32)) (* 17 x39)) 29)) (?v_170 (not ?v_159))) (let ((?v_220 (not ?v_168)) (?v_187 (< (- (+ (* 27 x23) (* 3 x32)) (* 4 x13)) (- 21))) (?v_203 (not ?v_190)) (?v_258 (not ?v_194))) (let ((?v_242 (not ?v_187)) (?v_229 (not ?v_164)) (?v_236 (not ?v_228)) (?v_261 (not ?v_223))) (and (and (and (and (and (and (and (and (and (and (and (and (and (and (and (and (and (and (and (and (and (and (and (and (and (and (and (and (and (and (and (and (and (and (and (and (and (and (and (and (and (and (and (and (and (and (and (and (and (and (and (and (and (and (and (and (and (and (and (and (and (and (and (and (and (and (and (and (and (and (and (and (and (and (and (and (and (and (and (and (and (and (and (and (and (and (and (and (and (and (and (and (and (and (and (and (and (and (and (and (and (and (and (and (and (and (and (and (and (and (and (and (and (and (and (and (and (and (and (and (and (and (and (and (and (and (and (and (and (and (and (and (and (and (and (and (and (and (and (and (and (and (and (and (and (and (and (and (and (and (and (and (and (and (and (and (and (and (and (and (and (and (and (and (and (and (and (and (and (and (and (and (and (and (and (and (and (and (and (and (and (and (and (and (and (and (and (and (and (and (and (and (and (and (and (and (and (and (and (and (and (and (and (and (and (and (and (and (and (and (and (and (and (and (and (and (and (and (and (and (and (and (and (and (and (and (and (and (and (and (and (and (and (and (and (and (and (and (and (and (and (and (and (and (and (and (and (and (and (and (and (and (and (and (and (and (and (and (and (and (and (and (and (and (and (and (and (and (and (and (and (and (and (and (and (and (and (and (and (and (and (and (and (and (and (and (and (and (and (and (and (and (and (and (and (and (and (and (and (and (and (and (and (and (and (and (and (and (and (and (and (and (and (and (and (and (and (and (and (and (and (and (and (and (and (and (and (and (and (and (and (and (and (and (and (and (and (and (and (and (and (and (and (and (and (and (and (and (and (and (and (and (and (and (and (and (and (and (and (and (and (and (and (and (and (and (and (and (and (and (and (and (and (and (and (and (and (and (and (and (and (and (and (and (and (and (and (and (and (and (and (and (and (and (and (and (and (and (and (and (and (and (and (and (and (and (and (and (and (and (and (and (and (and (and (and (and (and (and (and (and (and (and (and (and (and (and (and (and (and (and (and (and (and (and (and (and (and (and (and (and (and (and (and (and (and (and (and (and (and (and (and (and (and (and (and (and (and (and (and (and (and (and (and (and (and (and (and (and (and (and (and (and (and (and (and (and (and (and (and (and (and (and (and (and (and (and (and (and (and (and (and (and (and (and (and (and (and (and (and (and (and (and (and (and (and (and (and (and (and (and (and (and (and (and (and (and (and (and (and (and (and (and (and (and (and (and (and (and (and (and (and (and (and (and (and (and (and (and (and (and (and (and (and (and (and (and (and (and (and (and (and (and (and (and (and (and (and (and (and (and (and (and (and (and (and (and (and (and (and (and (and (and (and (and (and (and (and (and (and (and (and (and (and (and (and (and (and (and (and (and (and (and (and (and (and (and (and (and (or (or ?v_211 P4) ?v_20) (or (or ?v_77 P37) ?v_18)) (or (or ?v_169 P16) ?v_7)) (or (or ?v_63 P10) ?v_5)) (or (or ?v_47 ?v_1) ?v_96)) (or (or ?v_76 ?v_92) ?v_38)) (or (or ?v_74 ?v_12) P0)) (or (or P46 ?v_0) ?v_216)) (or (or ?v_1 ?v_80) P7)) (or (or ?v_17 ?v_106) ?v_40)) (or (or P5 ?v_2) ?v_94)) (or (or ?v_43 P22) ?v_10)) (or (or ?v_8 ?v_16) ?v_137)) (or (or ?v_219 ?v_97) ?v_45)) (or (or ?v_31 ?v_23) P27)) (or (or ?v_33 ?v_5) ?v_6)) (or (or ?v_75 ?v_259) ?v_39)) (or (or ?v_95 ?v_239) ?v_7)) (or (or ?v_108 ?v_141) ?v_21)) (or (or ?v_30 ?v_67) ?v_9)) (or (or ?v_10 ?v_11) ?v_53)) (or (or ?v_251 ?v_12) ?v_184)) (or (or ?v_14 ?v_14) P30)) (or (or ?v_71 P25) ?v_22)) (or (or ?v_51 P32) ?v_72)) (or (or ?v_117 ?v_15) ?v_49)) (or (or ?v_17 ?v_208) ?v_19)) (or (or ?v_191 ?v_26) ?v_18)) (or (or ?v_175 ?v_19) P29)) (or (or ?v_20 P46) ?v_83)) (or (or ?v_9 ?v_24) ?v_21)) (or (or ?v_22 ?v_185) P11)) (or (or ?v_25 ?v_23) ?v_151)) (or (or ?v_24 ?v_146) ?v_58)) (or (or ?v_36 ?v_25) ?v_16)) (or (or ?v_26 ?v_46) ?v_166)) (or (or P46 ?v_70) ?v_27)) (or (or P27 ?v_143) ?v_148)) (or (or ?v_120 ?v_91) ?v_29)) (or (or ?v_102 ?v_147) ?v_1)) (or (or ?v_30 ?v_213) ?v_42)) (or (or ?v_32 ?v_20) ?v_159)) (or (or ?v_240 ?v_64) ?v_114)) (or (or P5 ?v_138) ?v_31)) (or (or ?v_89 ?v_35) ?v_36)) (or (or ?v_153 P31) ?v_37)) (or (or ?v_199 ?v_68) ?v_38)) (or (or ?v_39 ?v_40) ?v_44)) (or (or ?v_93 ?v_227) ?v_24)) (or (or P40 ?v_103) ?v_50)) (or (or ?v_40 P27) ?v_45)) (or (or ?v_46 ?v_61) ?v_209)) (or (or ?v_90 ?v_47) ?v_56)) (or (or P35 P11) ?v_121)) (or (or ?v_127 ?v_104) ?v_44)) (or (or ?v_49 P40) ?v_54)) (or (or P41 ?v_50) ?v_20)) (or (or ?v_249 ?v_51) ?v_52)) (or (or ?v_30 ?v_30) ?v_9)) (or (or ?v_57 ?v_53) ?v_54)) (or (or ?v_172 P22) ?v_129)) (or (or ?v_55 ?v_6) ?v_65)) (or (or ?v_56 P34) ?v_57)) (or (or ?v_60 ?v_69) P27)) (or (or ?v_58 ?v_112) ?v_51)) (or (or P42 P41) ?v_59)) (or (or ?v_54 ?v_84) ?v_60)) (or (or ?v_57 ?v_61) P36)) (or (or ?v_105 ?v_201) ?v_183)) (or (or P30 P1) P37)) (or (or ?v_63 ?v_64) ?v_7)) (or (or ?v_128 P24) ?v_152)) (or (or ?v_32 ?v_18) ?v_99)) (or (or P11 ?v_65) ?v_60)) (or (or ?v_111 ?v_116) ?v_176)) (or (or ?v_67 ?v_68) ?v_69)) (or (or P27 P21) ?v_52)) (or (or P46 ?v_86) P26)) (or (or ?v_123 ?v_113) ?v_70)) (or (or ?v_56 P3) ?v_57)) (or (or ?v_71 ?v_79) ?v_182)) (or (or P1 ?v_73) P20)) (or ?v_235 ?v_88)) (or (or ?v_75 ?v_126) P37)) (or (or P35 ?v_23) ?v_77)) (or (or P14 ?v_76) ?v_15)) (or (or ?v_109 ?v_78) ?v_136)) (or (or ?v_11 P29) ?v_42)) (or (or ?v_40 ?v_224) ?v_79)) (or (or P29 P28) ?v_80)) (or (or P19 ?v_81) ?v_44)) (or (or P8 ?v_82) ?v_85)) (or (or ?v_83 ?v_161) ?v_84)) (or (or ?v_85 ?v_86) P40)) (or (or ?v_26 ?v_87) ?v_88)) (or (or ?v_89 ?v_90) ?v_91)) (or (or ?v_100 P25) ?v_92)) (or (or ?v_5 ?v_86) P45)) (or (or ?v_122 ?v_94) P23)) (or (or ?v_107 P23) ?v_91)) (or (or ?v_95 ?v_96) ?v_248)) (or (or ?v_76 ?v_93) ?v_51)) (or (or ?v_98 ?v_29) ?v_99)) (or (or P20 P8) ?v_217)) (or (or ?v_7 P33) P10)) (or (or ?v_101 ?v_102) ?v_103)) (or (or ?v_101 ?v_76) P21)) (or (or ?v_104 P30) ?v_105)) (or (or P30 P41) ?v_106)) (or (or ?v_52 ?v_107) ?v_33)) (or (or ?v_108 ?v_145) ?v_21)) (or (or ?v_109 ?v_72) ?v_135)) (or (or ?v_11 ?v_111) ?v_112)) (or (or ?v_5 ?v_113) ?v_114)) (or (or ?v_165 ?v_115) ?v_194)) (or (or P30 ?v_47) P3)) (or (or ?v_154 ?v_117) ?v_228)) (or (or ?v_76 ?v_119) ?v_120)) (or (or ?v_71 ?v_65) ?v_121)) (or (or ?v_200 P20) P3)) (or (or ?v_80 ?v_73) ?v_122)) (or (or ?v_69 ?v_123) ?v_19)) (or (or ?v_15 ?v_47) ?v_52)) (or (or P48 P42) ?v_243)) (or (or P21 ?v_72) ?v_157)) (or (or ?v_233 ?v_59) ?v_167)) (or (or ?v_122 ?v_125) ?v_71)) (or (or ?v_24 P40) ?v_90)) (or (or ?v_2 ?v_126) ?v_127)) (or (or P18 ?v_128) ?v_29)) (or (or ?v_14 ?v_123) ?v_129)) (or (or ?v_22 ?v_130) ?v_7)) (or (or ?v_171 ?v_144) ?v_97)) (or (or P20 ?v_131) ?v_132)) (or (or ?v_88 ?v_76) ?v_64)) (or (or ?v_87 P4) ?v_133)) (or (or ?v_112 ?v_134) ?v_80)) (or (or ?v_135 ?v_136) P1)) (or (or ?v_80 ?v_137) ?v_138)) (or (or ?v_27 ?v_180) ?v_140)) (or (or ?v_106 ?v_40) ?v_8)) (or (or ?v_141 ?v_136) P20)) (or (or ?v_129 ?v_8) ?v_142)) (or (or ?v_143 ?v_174) P40)) (or (or ?v_23 ?v_39) ?v_95)) (or (or ?v_39 ?v_73) P26)) (or (or ?v_162 ?v_117) P22)) (or (or ?v_144 ?v_145) ?v_38)) (or (or P37 ?v_231) ?v_67)) (or (or ?v_144 P3) ?v_9)) (or (or ?v_146 ?v_164) P26)) (or (or ?v_42 ?v_147) ?v_82)) (or (or ?v_29 ?v_158) ?v_20)) (or (or ?v_256 P42) ?v_82)) (or (or ?v_61 ?v_142) P25)) (or (or ?v_148 ?v_146) ?v_149)) (or (or ?v_206 ?v_0) ?v_24)) (or (or P49 ?v_54) ?v_150)) (or (or ?v_223 ?v_75) ?v_143)) (or (or ?v_163 ?v_151) ?v_90)) (or (or P3 ?v_190) ?v_37)) (or (or ?v_152 ?v_153) ?v_10)) (or (or ?v_205 ?v_155) ?v_154)) (or (or P38 ?v_116) ?v_106)) (or (or ?v_57 ?v_132) ?v_140)) (or (or ?v_32 ?v_52) ?v_108)) (or (or P33 ?v_155) P29)) (or (or P37 ?v_50) ?v_156)) (or (or ?v_150 ?v_132) ?v_24)) (or (or P24 ?v_157) ?v_77)) (or (or ?v_181 ?v_75) ?v_31)) (or (or ?v_123 ?v_112) ?v_155)) (or (or ?v_57 ?v_158) ?v_8)) (or (or ?v_36 ?v_178) ?v_69)) (or (or ?v_79 P48) ?v_246)) (or (or ?v_35 ?v_168) ?v_170)) (or (or ?v_45 ?v_52) P37)) (or (or ?v_160 ?v_116) P14)) (or (or ?v_161 ?v_188) ?v_17)) (or (or ?v_232 ?v_72) P44)) (or (or P18 ?v_210) ?v_163)) (or (or ?v_164 ?v_91) ?v_87)) (or (or ?v_165 ?v_90) ?v_97)) (or (or ?v_59 ?v_166) ?v_134)) (or (or P13 P39) ?v_68)) (or (or ?v_95 P40) P23)) (or (or ?v_111 ?v_75) ?v_151)) (or (or ?v_24 P42) ?v_167)) (or (or ?v_220 ?v_169) P33)) (or (or ?v_9 ?v_170) ?v_198)) (or (or ?v_171 ?v_44) ?v_36)) (or (or ?v_98 ?v_115) ?v_172)) (or (or ?v_173 ?v_14) ?v_125)) (or (or ?v_147 P19) ?v_186)) (or (or ?v_89 ?v_71) ?v_64)) (or (or ?v_46 ?v_222) ?v_192)) (or (or ?v_108 ?v_174) ?v_175)) (or (or P4 P49) ?v_160)) (or (or ?v_129 ?v_176) ?v_0)) (or (or P48 ?v_78) ?v_19)) (or (or ?v_161 ?v_204) ?v_9)) (or (or ?v_56 ?v_98) ?v_116)) (or (or P19 P29) ?v_68)) (or (or ?v_187 ?v_20) ?v_177)) (or (or ?v_257 ?v_12) ?v_179)) (or (or ?v_78 P39) ?v_113)) (or (or ?v_101 P29) ?v_122)) (or (or P19 ?v_1) ?v_39)) (or (or ?v_77 ?v_214) ?v_123)) (or (or ?v_181 ?v_131) ?v_182)) (or (or ?v_68 ?v_183) ?v_52)) (or (or ?v_136 ?v_84) ?v_57)) (or (or ?v_196 ?v_184) ?v_35)) (or (or ?v_159 ?v_185) ?v_140)) (or (or ?v_116 P23) ?v_52)) (or (or ?v_244 ?v_33) ?v_11)) (or (or ?v_87 ?v_186) ?v_187)) (or (or ?v_70 ?v_16) ?v_161)) (or (or ?v_188 P15) ?v_54)) (or (or ?v_82 ?v_189) ?v_203)) (or (or ?v_52 ?v_159) ?v_2)) (or (or ?v_49 ?v_191) ?v_183)) (or (or ?v_192 ?v_193) ?v_108)) (or (or ?v_195 ?v_73) ?v_150)) (or (or ?v_255 ?v_42) P14)) (or (or ?v_95 ?v_91) ?v_117)) (or (or ?v_168 P28) ?v_76)) (or (or ?v_89 ?v_175) ?v_93)) (or (or ?v_43 ?v_178) P22)) (or (or ?v_121 ?v_258) ?v_174)) (or (or ?v_195 ?v_76) ?v_103)) (or (or ?v_190 ?v_98) ?v_166)) (or (or ?v_215 ?v_168) ?v_44)) (or (or P43 P24) ?v_132)) (or (or ?v_98 ?v_196) ?v_7)) (or (or ?v_197 P8) ?v_242)) (or (or ?v_198 ?v_26) ?v_52)) (or (or ?v_129 ?v_29) ?v_138)) (or (or ?v_122 ?v_152) ?v_65)) (or (or ?v_85 ?v_158) ?v_207)) (or (or ?v_245 ?v_50) ?v_61)) (or (or ?v_144 ?v_185) ?v_103)) (or (or ?v_136 ?v_199) ?v_49)) (or (or ?v_160 P49) ?v_159)) (or (or ?v_200 ?v_98) ?v_201)) (or (or ?v_112 ?v_202) P39)) (or (or ?v_11 ?v_203) ?v_150)) (or (or ?v_237 ?v_0) ?v_147)) (or (or P3 ?v_11) ?v_204)) (or (or ?v_16 ?v_205) ?v_206)) (or (or ?v_19 ?v_187) ?v_221)) (or (or ?v_9 P31) ?v_206)) (or (or ?v_160 ?v_207) P27)) (or (or ?v_37 ?v_77) ?v_36)) (or (or ?v_148 ?v_168) ?v_192)) (or (or ?v_178 P11) ?v_208)) (or (or ?v_19 ?v_40) ?v_74)) (or (or ?v_241 ?v_189) P32)) (or (or ?v_210 ?v_43) ?v_211)) (or (or ?v_16 ?v_212) ?v_86)) (or (or ?v_213 ?v_199) ?v_23)) (or (or ?v_36 P49) ?v_214)) (or (or ?v_215 ?v_164) ?v_216)) (or (or ?v_194 P10) ?v_213)) (or (or ?v_73 ?v_33) ?v_217)) (or (or ?v_101 ?v_125) ?v_218)) (or (or ?v_202 ?v_116) ?v_145)) (or (or ?v_219 ?v_164) ?v_19)) (or (or ?v_21 ?v_215) ?v_23)) (or (or ?v_220 ?v_74) P15)) (or (or ?v_97 ?v_229) ?v_12)) (or (or ?v_136 ?v_130) ?v_12)) (or (or ?v_221 ?v_64) ?v_63)) (or (or ?v_222 P14) ?v_107)) (or (or P23 ?v_203) P2)) (or (or ?v_60 ?v_137) ?v_215)) (or (or P0 ?v_149) ?v_65)) (or (or P15 ?v_75) ?v_113)) (or (or ?v_138 ?v_223) ?v_93)) (or (or ?v_77 ?v_71) ?v_23)) (or (or P49 P6) P22)) (or (or ?v_32 ?v_61) ?v_153)) (or (or ?v_99 P49) P30)) (or (or ?v_199 ?v_224) ?v_96)) (or (or P25 ?v_60) ?v_225)) (or (or P45 ?v_129) P11)) (or (or ?v_254 ?v_186) ?v_56)) (or (or ?v_225 ?v_49) ?v_226)) (or (or ?v_150 ?v_190) ?v_69)) (or (or P36 P37) ?v_35)) (or (or ?v_157 ?v_68) ?v_57)) (or (or ?v_138 ?v_90) ?v_9)) (or (or ?v_227 ?v_38) ?v_9)) (or (or ?v_176 ?v_86) ?v_144)) (or (or ?v_135 ?v_228) P0)) (or (or ?v_0 ?v_229) ?v_104)) (or (or ?v_113 ?v_218) ?v_79)) (or (or ?v_77 ?v_206) ?v_192)) (or (or P48 P45) P38)) (or (or ?v_22 ?v_1) ?v_206)) (or (or ?v_214 ?v_64) ?v_128)) (or (or ?v_187 ?v_12) ?v_178)) (or (or ?v_178 ?v_179) ?v_12)) (or (or ?v_230 ?v_171) ?v_179)) (or (or ?v_154 ?v_192) ?v_65)) (or (or ?v_64 ?v_219) ?v_105)) (or (or ?v_29 ?v_46) ?v_49)) (or (or ?v_116 ?v_217) ?v_130)) (or (or ?v_90 ?v_231) ?v_150)) (or (or P49 P5) ?v_15)) (or (or ?v_106 P48) ?v_219)) (or (or ?v_232 ?v_233) ?v_188)) (or (or ?v_56 ?v_188) ?v_219)) (or (or ?v_188 P18) ?v_14)) (or (or ?v_208 ?v_218) ?v_184)) (or (or P14 ?v_6) ?v_132)) (or (or ?v_72 ?v_159) ?v_100)) (or (or P18 P8) ?v_11)) (or (or ?v_180 P33) ?v_75)) (or (or ?v_232 ?v_24) ?v_137)) (or (or P21 P31) ?v_149)) (or (or P36 P13) ?v_142)) (or (or ?v_234 ?v_203) P34)) (or (or ?v_26 P34) P36)) (or (or ?v_238 P28) ?v_236)) (or (or ?v_30 ?v_131) ?v_36)) (or (or ?v_31 ?v_27) ?v_86)) (or (or ?v_102 P1) ?v_136)) (or (or ?v_112 ?v_15) ?v_50)) (or (or ?v_59 ?v_70) ?v_132)) (or (or ?v_22 ?v_217) ?v_107)) (or (or ?v_42 ?v_154) ?v_45)) (or ?v_235 P46)) (or (or ?v_111 P21) ?v_86)) (or (or ?v_19 ?v_215) ?v_9)) (or (or ?v_236 ?v_237) ?v_219)) (or (or ?v_90 ?v_64) P9)) (or (or ?v_109 ?v_181) ?v_187)) (or (or ?v_120 ?v_216) ?v_75)) (or (or ?v_195 ?v_52) ?v_42)) (or (or ?v_35 P15) ?v_8)) (or (or ?v_68 ?v_82) ?v_140)) (or (or ?v_238 ?v_1) ?v_114)) (or (or ?v_162 ?v_27) ?v_221)) (or (or ?v_184 P1) ?v_101)) (or (or ?v_67 ?v_31) P45)) (or (or ?v_19 ?v_162) ?v_86)) (or (or ?v_217 P38) ?v_127)) (or (or ?v_171 P48) ?v_138)) (or (or ?v_232 ?v_209) ?v_239)) (or (or ?v_81 ?v_55) ?v_127)) (or (or ?v_147 ?v_143) ?v_123)) (or (or ?v_240 ?v_222) ?v_156)) (or (or P21 ?v_85) ?v_136)) (or (or P32 ?v_208) ?v_144)) (or (or P46 ?v_198) P18)) (or (or ?v_75 ?v_148) ?v_161)) (or (or ?v_119 ?v_148) ?v_60)) (or (or ?v_238 ?v_156) P28)) (or (or ?v_156 P21) P49)) (or (or ?v_241 ?v_242) P33)) (or (or ?v_192 ?v_25) ?v_20)) (or (or ?v_247 ?v_35) ?v_166)) (or (or ?v_160 ?v_148) ?v_133)) (or (or ?v_226 ?v_123) ?v_169)) (or (or ?v_2 P1) ?v_189)) (or (or ?v_191 ?v_114) ?v_9)) (or (or P43 ?v_243) ?v_209)) (or (or ?v_81 ?v_129) ?v_33)) (or (or P44 ?v_105) ?v_226)) (or (or ?v_2 ?v_202) ?v_12)) (or (or ?v_209 P41) ?v_191)) (or (or ?v_79 ?v_214) ?v_244)) (or (or P37 ?v_148) ?v_218)) (or (or P21 ?v_24) ?v_127)) (or (or ?v_229 P5) ?v_150)) (or (or ?v_195 ?v_6) ?v_185)) (or (or ?v_125 ?v_198) ?v_7)) (or (or ?v_117 ?v_155) ?v_36)) (or (or ?v_208 ?v_54) ?v_241)) (or (or P29 P35) P14)) (or (or ?v_191 ?v_14) ?v_163)) (or (or ?v_162 ?v_133) ?v_196)) (or (or P0 ?v_155) ?v_53)) (or (or ?v_128 ?v_0) ?v_10)) (or (or ?v_167 ?v_245) ?v_15)) (or (or P28 ?v_24) ?v_86)) (or (or ?v_222 ?v_59) ?v_211)) (or (or ?v_206 P36) P39)) (or (or ?v_212 ?v_230) ?v_200)) (or (or ?v_29 P26) ?v_190)) (or (or ?v_156 ?v_75) ?v_243)) (or (or ?v_218 P41) ?v_88)) (or (or ?v_32 ?v_145) ?v_80)) (or (or ?v_98 ?v_130) ?v_100)) (or (or ?v_237 ?v_36) P3)) (or (or P14 ?v_204) ?v_239)) (or (or ?v_89 ?v_245) ?v_21)) (or (or ?v_233 ?v_6) ?v_81)) (or (or ?v_103 ?v_86) ?v_174)) (or (or P40 ?v_240) ?v_76)) (or (or ?v_115 ?v_117) P38)) (or (or ?v_144 ?v_237) ?v_45)) (or (or ?v_166 ?v_22) ?v_72)) (or (or ?v_1 ?v_107) P14)) (or (or P32 ?v_142) P47)) (or (or ?v_261 ?v_87) ?v_246)) (or (or ?v_247 P5) ?v_32)) (or (or ?v_216 ?v_67) ?v_237)) (or (or ?v_17 ?v_248) P46)) (or (or P23 ?v_126) P36)) (or (or ?v_198 ?v_82) ?v_36)) (or (or ?v_72 ?v_15) ?v_67)) (or (or ?v_119 P24) ?v_58)) (or (or P4 ?v_25) ?v_223)) (or (or P11 ?v_225) ?v_9)) (or (or ?v_249 P47) ?v_134)) (or (or ?v_45 ?v_79) ?v_121)) (or (or ?v_26 P29) ?v_182)) (or (or ?v_142 ?v_79) P23)) (or (or ?v_165 P40) ?v_7)) (or (or ?v_15 ?v_87) ?v_201)) (or (or ?v_177 ?v_92) ?v_39)) (or (or P15 ?v_82) ?v_72)) (or (or ?v_138 ?v_183) ?v_25)) (or (or ?v_21 ?v_250) ?v_148)) (or (or ?v_183 ?v_243) ?v_134)) (or (or ?v_43 ?v_131) ?v_38)) (or (or ?v_149 ?v_95) ?v_200)) (or (or ?v_198 P10) ?v_15)) (or (or ?v_88 ?v_222) ?v_57)) (or (or P16 ?v_251) ?v_23)) (or (or ?v_195 ?v_142) ?v_30)) (or (or ?v_178 P38) ?v_132)) (or (or ?v_208 ?v_64) ?v_147)) (or (or ?v_109 ?v_180) ?v_126)) (or (or ?v_1 ?v_31) ?v_77)) (or (or ?v_164 ?v_223) ?v_31)) (or (or ?v_85 ?v_252) ?v_149)) (or (or ?v_192 ?v_208) ?v_40)) (or (or ?v_98 ?v_21) ?v_15)) (or (or ?v_45 ?v_14) ?v_76)) (or (or P13 P42) ?v_10)) (or (or ?v_99 ?v_250) ?v_63)) (or (or P48 ?v_203) ?v_10)) (or (or ?v_50 ?v_117) ?v_169)) (or (or P16 ?v_224) ?v_132)) (or (or ?v_156 P5) ?v_160)) (or (or ?v_89 ?v_6) ?v_253)) (or (or ?v_126 ?v_201) ?v_199)) (or (or ?v_21 ?v_144) ?v_130)) (or (or ?v_177 ?v_180) ?v_244)) (or (or ?v_130 ?v_164) ?v_250)) (or (or P45 ?v_56) ?v_187)) (or (or P35 ?v_77) ?v_172)) (or (or ?v_44 P14) ?v_47)) (or (or ?v_152 ?v_137) ?v_151)) (or (or P31 ?v_229) P22)) (or (or ?v_67 P49) ?v_64)) (or (or (not ?v_135) ?v_18) P1)) (or (or ?v_128 ?v_88) P13)) (or (or P27 ?v_92) ?v_113)) (or (or ?v_89 ?v_89) ?v_22)) (or (or ?v_133 ?v_187) P2)) (or (or ?v_186 ?v_199) ?v_80)) (or (or P17 ?v_129) ?v_49)) (or (or ?v_57 ?v_12) ?v_0)) (or (or ?v_127 ?v_144) ?v_200)) (or (or ?v_243 ?v_51) ?v_216)) (or (or ?v_51 ?v_216) P37)) (or (or ?v_254 P45) ?v_194)) (or (or P49 P28) ?v_171)) (or (or ?v_157 ?v_174) ?v_85)) (or (or ?v_70 ?v_243) ?v_83)) (or (or ?v_212 P38) ?v_229)) (or (or P29 ?v_61) ?v_20)) (or (or P16 ?v_20) ?v_83)) (or (or ?v_180 ?v_90) ?v_217)) (or (or P27 ?v_74) ?v_18)) (or (or ?v_158 ?v_137) ?v_68)) (or (or P48 ?v_75) ?v_205)) (or (or ?v_116 ?v_135) ?v_87)) (or (or ?v_201 ?v_241) ?v_98)) (or (or ?v_234 P24) ?v_99)) (or (or ?v_84 ?v_209) ?v_57)) (or (or ?v_184 ?v_21) P36)) (or (or ?v_229 ?v_234) ?v_184)) (or (or ?v_93 P25) ?v_12)) (or (or ?v_15 ?v_107) ?v_255)) (or (or ?v_210 ?v_9) ?v_75)) (or (or ?v_6 ?v_252) ?v_234)) (or (or ?v_59 P2) ?v_256)) (or (or ?v_237 P46) ?v_202)) (or (or ?v_69 ?v_78) ?v_127)) (or (or ?v_187 ?v_107) ?v_128)) (or (or ?v_175 ?v_181) ?v_72)) (or (or P30 ?v_16) ?v_31)) (or (or ?v_12 P15) ?v_40)) (or (or ?v_60 ?v_61) P43)) (or (or ?v_181 P39) P29)) (or (or ?v_192 ?v_45) ?v_64)) (or (or ?v_129 ?v_159) ?v_117)) (or (or ?v_157 ?v_70) ?v_37)) (or (or ?v_207 ?v_154) ?v_221)) (or (or ?v_171 ?v_187) ?v_208)) (or (or ?v_163 ?v_22) ?v_112)) (or (or ?v_149 ?v_59) ?v_170)) (or (or ?v_250 ?v_123) ?v_219)) (or (or ?v_247 P2) ?v_123)) (or (or ?v_199 ?v_222) P12)) (or (or ?v_16 ?v_72) ?v_59)) (or (or ?v_151 ?v_150) P8)) (or (or P17 ?v_211) ?v_55)) (or (or ?v_65 P6) ?v_58)) (or (or ?v_210 P25) ?v_214)) (or (or ?v_162 ?v_115) ?v_23)) (or (or ?v_20 ?v_135) ?v_86)) (or (or ?v_5 ?v_94) ?v_237)) (or (or ?v_53 ?v_233) P33)) (or (or P25 P37) ?v_23)) (or (or ?v_40 ?v_185) ?v_142)) (or (or ?v_249 ?v_78) ?v_60)) (or (or ?v_6 ?v_157) P27)) (or (or ?v_257 ?v_76) ?v_171)) (or (or ?v_154 ?v_38) P33)) (or (or ?v_202 ?v_91) ?v_232)) (or (or ?v_36 P1) ?v_24)) (or (or ?v_258 ?v_177) ?v_213)) (or (or ?v_98 ?v_92) ?v_236)) (or (or ?v_73 ?v_193) ?v_149)) (or (or ?v_138 P37) ?v_1)) (or (or ?v_174 ?v_247) ?v_79)) (or (or P35 ?v_175) ?v_79)) (or (or ?v_1 ?v_67) ?v_154)) (or (or ?v_204 ?v_26) ?v_174)) (or (or P1 ?v_108) ?v_101)) (or (or ?v_174 ?v_57) P35)) (or (or ?v_254 ?v_144) ?v_126)) (or (or ?v_239 ?v_26) ?v_18)) (or (or ?v_142 ?v_198) P42)) (or (or ?v_122 ?v_97) P17)) (or (or ?v_24 ?v_195) ?v_108)) (or (or ?v_221 ?v_40) P44)) (or (or ?v_247 ?v_131) ?v_65)) (or (or ?v_137 ?v_79) ?v_78)) (or (or ?v_258 ?v_211) P2)) (or (or ?v_182 ?v_147) P45)) (or (or P16 ?v_103) ?v_23)) (or (or ?v_51 ?v_22) ?v_53)) (or (or ?v_199 ?v_80) ?v_247)) (or (or P42 ?v_165) ?v_255)) (or (or ?v_132 ?v_168) ?v_192)) (or (or ?v_116 ?v_211) ?v_104)) (or (or ?v_236 ?v_259) ?v_210)) (or (or P10 ?v_241) ?v_80)) (or (or ?v_219 ?v_31) P45)) (or (or ?v_177 ?v_134) ?v_197)) (or (or ?v_138 ?v_120) ?v_133)) (or (or ?v_82 ?v_84) ?v_199)) (or (or P45 ?v_253) ?v_100)) (or (or ?v_65 ?v_38) ?v_206)) (or (or P35 ?v_233) P29)) (or (or ?v_194 ?v_35) ?v_195)) (or (or ?v_69 ?v_259) ?v_191)) (or (or ?v_155 ?v_37) ?v_136)) (or (or ?v_112 ?v_186) ?v_141)) (or (or ?v_76 ?v_36) P23)) (or (or ?v_233 ?v_232) ?v_249)) (or (or ?v_69 ?v_5) ?v_47)) (or (or P0 ?v_142) ?v_230)) (or (or ?v_179 ?v_230) P6)) (or (or ?v_78 ?v_67) ?v_150)) (or (or ?v_253 ?v_108) ?v_98)) (or (or ?v_65 ?v_208) ?v_63)) (or (or P18 ?v_135) ?v_178)) (or (or P38 ?v_81) ?v_108)) (or (or ?v_73 ?v_201) ?v_253)) (or (or ?v_254 ?v_242) ?v_148)) (or (or ?v_21 ?v_125) ?v_147)) (or (or ?v_52 ?v_224) ?v_42)) (or (or ?v_147 P17) ?v_249)) (or (or ?v_135 ?v_67) ?v_26)) (or (or ?v_239 ?v_59) ?v_203)) (or (or ?v_152 ?v_253) P17)) (or (or ?v_171 ?v_184) P1)) (or (or ?v_188 ?v_157) ?v_169)) (or (or P28 P28) ?v_260)) (or (or ?v_105 ?v_221) ?v_20)) (or (or ?v_12 P10) ?v_74)) (or (or ?v_138 ?v_111) ?v_239)) (or (or ?v_241 ?v_92) ?v_144)) (or (or ?v_117 ?v_258) P26)) (or (or ?v_85 ?v_171) ?v_162)) (or (or ?v_7 ?v_182) ?v_226)) (or (or ?v_45 ?v_171) ?v_128)) (or (or P10 ?v_252) P28)) (or (or ?v_63 ?v_149) ?v_27)) (or (or ?v_261 ?v_241) ?v_158)) (or (or ?v_25 ?v_14) ?v_129)) (or (or ?v_133 ?v_6) ?v_186))))))))))))))))))))))))))))))))))))))))))
(check-sat)
(exit)
